(set-logic ALL)
(declare-const x String)
(declare-const y String)
(assert (= 0 (str.len x)))
(assert (= x y))
(assert (str.in_re y (re.+ (re.range "[" "b"))))
(assert (str.prefixof "j" x))
(check-sat)
